(set-logic QF_BV)

;; Declare variables for packet attributes
(declare-fun src_ip () (_ BitVec 32))
(declare-fun dst_ip () (_ BitVec 32))
(declare-fun src_port () (_ BitVec 16))
(declare-fun dst_port () (_ BitVec 16))
(declare-fun proto () (_ BitVec 8))
(declare-fun state () (_ BitVec 8))

;; Declare constants for actions
(declare-const ACTION_DROP (_ BitVec 8))
(declare-const ACTION_ACCEPT (_ BitVec 8))

;; Define values for actions (example - adjust as needed)
(assert (= ACTION_DROP #b00000000))  ; Example: 0 for DROP
(assert (= ACTION_ACCEPT #b00000001)) ; Example: 1 for ACCEPT

;; Function to apply mask (bitwise AND)
(define-fun apply_mask ((ip (_ BitVec 32)) (mask (_ BitVec 32))) (_ BitVec 32)
    (bvand ip mask)
)

;; Define init_rules function - will contain rule assertions
(define-fun init_rules () ()
  ; Initialize rules - assertions will go here
  ; Rule 1 assertion
(assert (and (= proto #b-0000001) (= (apply_mask src_ip #xffffffff) (apply_mask #x00000000 #xffffffff)) (= (apply_mask dst_ip #xffffffff) (apply_mask #x00000000 #xffffffff))))\n\n  ; Rule 2 assertion
(assert (and (= proto #b-0000001) (= (apply_mask src_ip #xffffffff) (apply_mask #x00000000 #xffffffff)) (= (apply_mask dst_ip #xffffffff) (apply_mask #x00000000 #xffffffff))))\n\n  ; Rule 3 assertion
(assert (and (= proto #b-0000001) (= (apply_mask src_ip #xffffffff) (apply_mask #x00000000 #xffffffff)) (= (apply_mask dst_ip #xffffffff) (apply_mask #x00000000 #xffffffff))))\n\n  ; Rule 4 assertion
(assert (and (= proto #b00000001) (= (apply_mask src_ip #xffffffff) (apply_mask #x00000000 #xffffffff)) (= (apply_mask dst_ip #xffffffff) (apply_mask #x00000000 #xffffffff))))\n\n  ; Rule 5 assertion
(assert (and (= proto #b00000110) (= (apply_mask src_ip #xffffffff) (apply_mask #x00000000 #xffffffff)) (= (apply_mask dst_ip #xffffffff) (apply_mask #x00000000 #xffffffff)) (= dst_port #x0016)))\n\n  ; Rule 6 assertion
(assert (and (= proto #b00000110) (= (apply_mask src_ip #xffffffff) (apply_mask #x00000000 #xffffffff)) (= (apply_mask dst_ip #xffffffff) (apply_mask #x00000000 #xffffffff)) (= dst_port #x0071)))\n\n  ; Default DROP policy assertion (will be added later)\n  ; Total rules count: 7\n)}\n\n;; Assert default DROP policy for filter table (if no rule matches)
;; (No explicit assertion needed here, default DROP is handled in check_packet function)


;; Define check_packet function - SMT-LIB version
(define-fun check_packet ((src_ip (_ BitVec 32)) (dst_ip (_ BitVec 32)) (src_port (_ BitVec 16)) (dst_port (_ BitVec 16)) (proto (_ BitVec 8)) (state () (_ BitVec 8))) (_ BitVec 8)
  (let (

    (action_rule0 (ite  ; Rule 1
        (and (= proto #b-0000001) (= (apply_mask src_ip #xffffffff) (apply_mask #x00000000 #xffffffff)) (= (apply_mask dst_ip #xffffffff) (apply_mask #x00000000 #xffffffff)))
        ACTION_ACCEPT
        ACTION_DROP ; Fallback to previous rule's action if not matched
    ))

    (action_rule1 (ite  ; Rule 2
        (and (= proto #b-0000001) (= (apply_mask src_ip #xffffffff) (apply_mask #x00000000 #xffffffff)) (= (apply_mask dst_ip #xffffffff) (apply_mask #x00000000 #xffffffff)))
        ACTION_ACCEPT
        action_rule0 ; Fallback to previous rule's action if not matched
    ))

    (action_rule2 (ite  ; Rule 3
        (and (= proto #b-0000001) (= (apply_mask src_ip #xffffffff) (apply_mask #x00000000 #xffffffff)) (= (apply_mask dst_ip #xffffffff) (apply_mask #x00000000 #xffffffff)))
        ACTION_ACCEPT
        action_rule1 ; Fallback to previous rule's action if not matched
    ))

    (action_rule3 (ite  ; Rule 4
        (and (= proto #b00000001) (= (apply_mask src_ip #xffffffff) (apply_mask #x00000000 #xffffffff)) (= (apply_mask dst_ip #xffffffff) (apply_mask #x00000000 #xffffffff)))
        ACTION_ACCEPT
        action_rule2 ; Fallback to previous rule's action if not matched
    ))

    (action_rule4 (ite  ; Rule 5
        (and (= proto #b00000110) (= (apply_mask src_ip #xffffffff) (apply_mask #x00000000 #xffffffff)) (= (apply_mask dst_ip #xffffffff) (apply_mask #x00000000 #xffffffff)) (= dst_port #x0016))
        ACTION_ACCEPT
        action_rule3 ; Fallback to previous rule's action if not matched
    ))

    (action_rule5 (ite  ; Rule 6
        (and (= proto #b00000110) (= (apply_mask src_ip #xffffffff) (apply_mask #x00000000 #xffffffff)) (= (apply_mask dst_ip #xffffffff) (apply_mask #x00000000 #xffffffff)) (= dst_port #x0071))
        ACTION_ACCEPT
        action_rule4 ; Fallback to previous rule's action if not matched
    ))

    (action_default ACTION_DROP) ; Default action if no rule matches
    )
    (ite action_rule5 ; Evaluate last rule's action (which chains back to previous rules)
         action_rule5
         action_default)
  )
)

;; End of SMT-LIB file
)
